17 19 26 34 40 61 67 75 82 84 11 29 30 71 72 90 5 6 23 31 49 52 70 78 95 96 32 69 47 54 37 50 51 64 14 22 33 35 42 48 53 59 66 68 79 87 12 16 18 83 85 89 10 91 13 24 44 45 56 57 77 88 8 9 20 39 62 81 92 94 46 55 25 76 3 7 21 28 73 80 93 98 100 2 43 58 99 38 63 1 4 36 41 60 65 97 15 27 74 86
